105
103
94
90
84
81
86
79
70
66
63
74
82
74
81
75
86
71
70
72
76
78
65
76
68
68
72
65
66
67
58
48
57
56
53
55
55
55
53
54
52
47
58
54
52
58
55
57
52
58
103
103
106
105
108
107
106
104
106
103
105
105
108
104
106
104
105
102
105
103
106
106
105
105
106
107
107
105
106
108
103
104
107
107
105
107
105
107
106
99
106
104
106
104
107
104
105
105
106
107
103
103
106
105
108
107
106
104
106
103
105
105
108
104
106
104
105
102
105
103
106
106
105
105
106
107
107
105
106
108
103
104
107
107
105
107
105
107
106
99
106
104
106
104
107
104
105
105
106
107
103
103
106
105
108
107
106
104
106
103
105
105
108
104
106
104
105
102
105
103
106
106
105
105
106
107
107
105
106
108
103
104
107
107
105
107
105
107
106
99
106
104
106
104
107
104
105
105
106
107
104
104
102
103
105
104
103
105
108
103
109
104
106
104
105
